(declare-const x0 Real)
(assert (<= x0 0.044000))
(declare-const x1 Real)
(assert (<= 13.130000 x1))
(declare-const x2 Real)
(assert (<= x2 600.0))

(assert (= (* (- 0.240000) (* (* 30.0 (- 1.0 (exp (- (/ (* (* (- 1.0 (/ (* (* 0.487157 (/ x1 x0)) (- 1.0 (/ (tanh (* 0.073200 (sqrt (/ (* 0.046800 (* 60.0 (/ (* (* 0.074700 x2) (* 13.130000 x1)) (* 144.0 (+ (* 0.054722 x1) (* (- 0.000547) (/ x1 x0))))))) (* 0.794206 (^ (* 2.037246 (* 60.0 (/ (* (* 0.074700 x2) (* 13.130000 x1)) (* 144.0 (+ (* 0.054722 x1) (* (- 0.000547) (/ x1 x0))))))) 0.350000)))))) (* 0.073200 (sqrt (/ (* 0.046800 (* 60.0 (/ (* (* 0.074700 x2) (* 13.130000 x1)) (* 144.0 (+ (* 0.054722 x1) (* (- 0.000547) (/ x1 x0))))))) (* 0.794206 (^ (* 2.037246 (* 60.0 (/ (* (* 0.074700 x2) (* 13.130000 x1)) (* 144.0 (+ (* 0.054722 x1) (* (- 0.000547) (/ x1 x0))))))) 0.350000)))))))) (+ (* 0.487157 (/ x1 x0)) (+ (* 0.343611 x1) 0.0)))) (/ (* 0.046800 (* 60.0 (/ (* (* 0.074700 x2) (* 13.130000 x1)) (* 144.0 (+ (* 0.054722 x1) (* (- 0.000547) (/ x1 x0))))))) (* 0.794206 (^ (* 2.037246 (* 60.0 (/ (* (* 0.074700 x2) (* 13.130000 x1)) (* 144.0 (+ (* 0.054722 x1) (* (- 0.000547) (/ x1 x0))))))) 0.350000)))) (+ (* 0.487157 (/ x1 x0)) (+ (* 0.343611 x1) 0.0))) (* 0.240000 (* 0.416667 (* (* 0.980811 x2) x1)))))))) (* 0.416667 (* (* 0.980811 x2) x1)))) (- 6000.0)))

(minimize
	(+ (* 0.281022 x1) (+ (+ (* 13.927577 (sqrt (* 0.000007 (* (* (* 0.000074 (^ (* 60.0 (/ (* (* 0.074700 x2) (* 13.130000 x1)) (* 144.0 (+ (* 0.054722 x1) (* (- 0.000547) (/ x1 x0)))))) 2.0)) (+ (* (/ (* 0.487157 (/ x1 x0)) (+ (* 0.054722 x1) (* (- 0.000547) (/ x1 x0)))) (^ (* 2.037246 (* 60.0 (/ (* (* 0.074700 x2) (* 13.130000 x1)) (* 144.0 (+ (* 0.054722 x1) (* (- 0.000547) (/ x1 x0))))))) (- 0.500000))) (/ (* 0.100000 (+ (* 0.343611 x1) 0.0)) (+ (* 0.054722 x1) (* (- 0.000547) (/ x1 x0)))))) (* 0.416667 (* (* 0.980811 x2) x1)))))) 4.0) (/ (* 19.811230 x1) (* 1728.0 x0))))
)
(check-sat)
(get-objectives)
(exit)

